&inputpp
  outdir     =  'out/'
  prefix     =  'grafeno'
  seedname   =  'grafenowan'
  write_amn  =  .true.
  write_mmn  =  .true.
  write_unk  =  .true.
/
