use_ws_distance = .true.
!---------------------------GENERAL
num_bands = 16
num_wann  = 2
! exclude_bands = 1,2,3
!------------------------------CONV
num_iter  = 500
iprint    = 3
num_print_cycles = 50

!!! -- Disentanglement parameters -- !!!
!!! son rangos de energías sin recorrerse la EF !!!
dis_froz_min     = -4.0
dis_froz_max     =  0.0
dis_win_min      = -10.0
dis_win_max      =  14.0

!! To plot the WFs
! restart              =  plot
wannier_plot           =  true
wannier_plot_supercell =  3
write_hr  = true
write_xyz = true

!! To plot the WF interpolated band structure
bands_plot      =  true
begin kpoint_path
K 0.66666667 0.33333333 0.00000000 G 0.00000000 0.00000000 0.00000000
G 0.00000000 0.00000000 0.00000000 M 0.50000000 0.00000000 0.00000000
end kpoint_path

!----------------------------SYSTEM
begin unit_cell_cart
Ang
2.467306803  -0.000000000  -0.000000000
1.233653402   2.136750370   0.000000000
0.000000000  -0.000000000  19.999730020
end unit_cell_cart

begin atoms_frac
C    0.000000000   0.000000000   0.250000000
C    0.333333333   0.333333333   0.250000000
end atoms_frac

begin projections
	C:pz
end projections

spinors = false

!----------------------------KPOINTS
! mismos puntos que en el nscf
mp_grid = 12 12 1
begin kpoints
0.00000000 0.00000000 0.00000000
0.00000000 0.08333333 0.00000000
0.00000000 0.16666667 0.00000000
0.00000000 0.25000000 0.00000000
0.00000000 0.33333333 0.00000000
0.00000000 0.41666667 0.00000000
0.00000000 0.50000000 0.00000000
0.00000000 0.58333333 0.00000000
0.00000000 0.66666667 0.00000000
0.00000000 0.75000000 0.00000000
0.00000000 0.83333333 0.00000000
0.00000000 0.91666667 0.00000000
0.08333333 0.00000000 0.00000000
0.08333333 0.08333333 0.00000000
0.08333333 0.16666667 0.00000000
0.08333333 0.25000000 0.00000000
0.08333333 0.33333333 0.00000000
0.08333333 0.41666667 0.00000000
0.08333333 0.50000000 0.00000000
0.08333333 0.58333333 0.00000000
0.08333333 0.66666667 0.00000000
0.08333333 0.75000000 0.00000000
0.08333333 0.83333333 0.00000000
0.08333333 0.91666667 0.00000000
0.16666667 0.00000000 0.00000000
0.16666667 0.08333333 0.00000000
0.16666667 0.16666667 0.00000000
0.16666667 0.25000000 0.00000000
0.16666667 0.33333333 0.00000000
0.16666667 0.41666667 0.00000000
0.16666667 0.50000000 0.00000000
0.16666667 0.58333333 0.00000000
0.16666667 0.66666667 0.00000000
0.16666667 0.75000000 0.00000000
0.16666667 0.83333333 0.00000000
0.16666667 0.91666667 0.00000000
0.25000000 0.00000000 0.00000000
0.25000000 0.08333333 0.00000000
0.25000000 0.16666667 0.00000000
0.25000000 0.25000000 0.00000000
0.25000000 0.33333333 0.00000000
0.25000000 0.41666667 0.00000000
0.25000000 0.50000000 0.00000000
0.25000000 0.58333333 0.00000000
0.25000000 0.66666667 0.00000000
0.25000000 0.75000000 0.00000000
0.25000000 0.83333333 0.00000000
0.25000000 0.91666667 0.00000000
0.33333333 0.00000000 0.00000000
0.33333333 0.08333333 0.00000000
0.33333333 0.16666667 0.00000000
0.33333333 0.25000000 0.00000000
0.33333333 0.33333333 0.00000000
0.33333333 0.41666667 0.00000000
0.33333333 0.50000000 0.00000000
0.33333333 0.58333333 0.00000000
0.33333333 0.66666667 0.00000000
0.33333333 0.75000000 0.00000000
0.33333333 0.83333333 0.00000000
0.33333333 0.91666667 0.00000000
0.41666667 0.00000000 0.00000000
0.41666667 0.08333333 0.00000000
0.41666667 0.16666667 0.00000000
0.41666667 0.25000000 0.00000000
0.41666667 0.33333333 0.00000000
0.41666667 0.41666667 0.00000000
0.41666667 0.50000000 0.00000000
0.41666667 0.58333333 0.00000000
0.41666667 0.66666667 0.00000000
0.41666667 0.75000000 0.00000000
0.41666667 0.83333333 0.00000000
0.41666667 0.91666667 0.00000000
0.50000000 0.00000000 0.00000000
0.50000000 0.08333333 0.00000000
0.50000000 0.16666667 0.00000000
0.50000000 0.25000000 0.00000000
0.50000000 0.33333333 0.00000000
0.50000000 0.41666667 0.00000000
0.50000000 0.50000000 0.00000000
0.50000000 0.58333333 0.00000000
0.50000000 0.66666667 0.00000000
0.50000000 0.75000000 0.00000000
0.50000000 0.83333333 0.00000000
0.50000000 0.91666667 0.00000000
0.58333333 0.00000000 0.00000000
0.58333333 0.08333333 0.00000000
0.58333333 0.16666667 0.00000000
0.58333333 0.25000000 0.00000000
0.58333333 0.33333333 0.00000000
0.58333333 0.41666667 0.00000000
0.58333333 0.50000000 0.00000000
0.58333333 0.58333333 0.00000000
0.58333333 0.66666667 0.00000000
0.58333333 0.75000000 0.00000000
0.58333333 0.83333333 0.00000000
0.58333333 0.91666667 0.00000000
0.66666667 0.00000000 0.00000000
0.66666667 0.08333333 0.00000000
0.66666667 0.16666667 0.00000000
0.66666667 0.25000000 0.00000000
0.66666667 0.33333333 0.00000000
0.66666667 0.41666667 0.00000000
0.66666667 0.50000000 0.00000000
0.66666667 0.58333333 0.00000000
0.66666667 0.66666667 0.00000000
0.66666667 0.75000000 0.00000000
0.66666667 0.83333333 0.00000000
0.66666667 0.91666667 0.00000000
0.75000000 0.00000000 0.00000000
0.75000000 0.08333333 0.00000000
0.75000000 0.16666667 0.00000000
0.75000000 0.25000000 0.00000000
0.75000000 0.33333333 0.00000000
0.75000000 0.41666667 0.00000000
0.75000000 0.50000000 0.00000000
0.75000000 0.58333333 0.00000000
0.75000000 0.66666667 0.00000000
0.75000000 0.75000000 0.00000000
0.75000000 0.83333333 0.00000000
0.75000000 0.91666667 0.00000000
0.83333333 0.00000000 0.00000000
0.83333333 0.08333333 0.00000000
0.83333333 0.16666667 0.00000000
0.83333333 0.25000000 0.00000000
0.83333333 0.33333333 0.00000000
0.83333333 0.41666667 0.00000000
0.83333333 0.50000000 0.00000000
0.83333333 0.58333333 0.00000000
0.83333333 0.66666667 0.00000000
0.83333333 0.75000000 0.00000000
0.83333333 0.83333333 0.00000000
0.83333333 0.91666667 0.00000000
0.91666667 0.00000000 0.00000000
0.91666667 0.08333333 0.00000000
0.91666667 0.16666667 0.00000000
0.91666667 0.25000000 0.00000000
0.91666667 0.33333333 0.00000000
0.91666667 0.41666667 0.00000000
0.91666667 0.50000000 0.00000000
0.91666667 0.58333333 0.00000000
0.91666667 0.66666667 0.00000000
0.91666667 0.75000000 0.00000000
0.91666667 0.83333333 0.00000000
0.91666667 0.91666667 0.00000000
end kpoints
