&CONTROL
   calculation     =  'scf'
   restart_mode    =  'from_scratch'
   prefix          =  'grafeno'
   outdir          =  'tmp/'
   pseudo_dir      =  './'
/

&SYSTEM
   ibrav           =  0
   ecutrho         =  1120
   ecutwfc         =  140
   nat             =  2
   nspin           =  1
   ntyp            =  1
   occupations     =  'smearing'
   smearing        =  'gaussian'
   degauss         =   2e-3
   tot_charge      =  0.0
   vdw_corr        =  'none'
 /

&ELECTRONS
   conv_thr         =  1e-10
   diagonalization  =  'david'
   electron_maxstep =  1000
   mixing_beta      =  0.5
 /

&IONS
/

&CELL
/

ATOMIC_SPECIES
C    12.011    C.pbe-n-kjpaw_psl.1.0.0.UPF

ATOMIC_POSITIONS {crystal}
C    0.000000000   0.000000000   0.250000000
C    0.333333333   0.333333333   0.250000000

CELL_PARAMETERS {angstrom}
   2.467306803  -0.000000000  -0.000000000
   1.233653402   2.136750370   0.000000000
   0.000000000  -0.000000000  19.999730020
   
K_POINTS {automatic}
18 18 1 0 0 0

