&CONTROL
   calculation     =  'nscf'
   restart_mode    =  'from_scratch'
   prefix          =  'grafeno'
   outdir          =  'tmp/'
   pseudo_dir      =  './'
/

&SYSTEM
   ibrav           =  0
   ecutrho         =  1120
   ecutwfc         =  140
   nat             =  2
   nspin           =  1
   ntyp            =  1
   occupations     =  'smearing'
   smearing        =  'gaussian'
   degauss         =   2e-3
   tot_charge      =  0.0
   vdw_corr        =  'none'
   nbnd            =  16
 /

&ELECTRONS
   conv_thr         =  1e-10
   diago_full_acc   = .true.
 /

&IONS
/

&CELL
/

ATOMIC_SPECIES
C    12.011    C.pbe-n-kjpaw_psl.1.0.0.UPF

ATOMIC_POSITIONS {crystal}
C    0.000000000   0.000000000   0.250000000
C    0.333333333   0.333333333   0.250000000

CELL_PARAMETERS {angstrom}
   2.467306803  -0.000000000  -0.000000000
   1.233653402   2.136750370   0.000000000
   0.000000000  -0.000000000  19.999730020

K_POINTS crystal
144
 0.00000000 0.00000000 0.00000000 6.94444444e-03
 0.00000000 0.08333333 0.00000000 6.94444444e-03
 0.00000000 0.16666667 0.00000000 6.94444444e-03
 0.00000000 0.25000000 0.00000000 6.94444444e-03
 0.00000000 0.33333333 0.00000000 6.94444444e-03
 0.00000000 0.41666667 0.00000000 6.94444444e-03
 0.00000000 0.50000000 0.00000000 6.94444444e-03
 0.00000000 0.58333333 0.00000000 6.94444444e-03
 0.00000000 0.66666667 0.00000000 6.94444444e-03
 0.00000000 0.75000000 0.00000000 6.94444444e-03
 0.00000000 0.83333333 0.00000000 6.94444444e-03
 0.00000000 0.91666667 0.00000000 6.94444444e-03
 0.08333333 0.00000000 0.00000000 6.94444444e-03
 0.08333333 0.08333333 0.00000000 6.94444444e-03
 0.08333333 0.16666667 0.00000000 6.94444444e-03
 0.08333333 0.25000000 0.00000000 6.94444444e-03
 0.08333333 0.33333333 0.00000000 6.94444444e-03
 0.08333333 0.41666667 0.00000000 6.94444444e-03
 0.08333333 0.50000000 0.00000000 6.94444444e-03
 0.08333333 0.58333333 0.00000000 6.94444444e-03
 0.08333333 0.66666667 0.00000000 6.94444444e-03
 0.08333333 0.75000000 0.00000000 6.94444444e-03
 0.08333333 0.83333333 0.00000000 6.94444444e-03
 0.08333333 0.91666667 0.00000000 6.94444444e-03
 0.16666667 0.00000000 0.00000000 6.94444444e-03
 0.16666667 0.08333333 0.00000000 6.94444444e-03
 0.16666667 0.16666667 0.00000000 6.94444444e-03
 0.16666667 0.25000000 0.00000000 6.94444444e-03
 0.16666667 0.33333333 0.00000000 6.94444444e-03
 0.16666667 0.41666667 0.00000000 6.94444444e-03
 0.16666667 0.50000000 0.00000000 6.94444444e-03
 0.16666667 0.58333333 0.00000000 6.94444444e-03
 0.16666667 0.66666667 0.00000000 6.94444444e-03
 0.16666667 0.75000000 0.00000000 6.94444444e-03
 0.16666667 0.83333333 0.00000000 6.94444444e-03
 0.16666667 0.91666667 0.00000000 6.94444444e-03
 0.25000000 0.00000000 0.00000000 6.94444444e-03
 0.25000000 0.08333333 0.00000000 6.94444444e-03
 0.25000000 0.16666667 0.00000000 6.94444444e-03
 0.25000000 0.25000000 0.00000000 6.94444444e-03
 0.25000000 0.33333333 0.00000000 6.94444444e-03
 0.25000000 0.41666667 0.00000000 6.94444444e-03
 0.25000000 0.50000000 0.00000000 6.94444444e-03
 0.25000000 0.58333333 0.00000000 6.94444444e-03
 0.25000000 0.66666667 0.00000000 6.94444444e-03
 0.25000000 0.75000000 0.00000000 6.94444444e-03
 0.25000000 0.83333333 0.00000000 6.94444444e-03
 0.25000000 0.91666667 0.00000000 6.94444444e-03
 0.33333333 0.00000000 0.00000000 6.94444444e-03
 0.33333333 0.08333333 0.00000000 6.94444444e-03
 0.33333333 0.16666667 0.00000000 6.94444444e-03
 0.33333333 0.25000000 0.00000000 6.94444444e-03
 0.33333333 0.33333333 0.00000000 6.94444444e-03
 0.33333333 0.41666667 0.00000000 6.94444444e-03
 0.33333333 0.50000000 0.00000000 6.94444444e-03
 0.33333333 0.58333333 0.00000000 6.94444444e-03
 0.33333333 0.66666667 0.00000000 6.94444444e-03
 0.33333333 0.75000000 0.00000000 6.94444444e-03
 0.33333333 0.83333333 0.00000000 6.94444444e-03
 0.33333333 0.91666667 0.00000000 6.94444444e-03
 0.41666667 0.00000000 0.00000000 6.94444444e-03
 0.41666667 0.08333333 0.00000000 6.94444444e-03
 0.41666667 0.16666667 0.00000000 6.94444444e-03
 0.41666667 0.25000000 0.00000000 6.94444444e-03
 0.41666667 0.33333333 0.00000000 6.94444444e-03
 0.41666667 0.41666667 0.00000000 6.94444444e-03
 0.41666667 0.50000000 0.00000000 6.94444444e-03
 0.41666667 0.58333333 0.00000000 6.94444444e-03
 0.41666667 0.66666667 0.00000000 6.94444444e-03
 0.41666667 0.75000000 0.00000000 6.94444444e-03
 0.41666667 0.83333333 0.00000000 6.94444444e-03
 0.41666667 0.91666667 0.00000000 6.94444444e-03
 0.50000000 0.00000000 0.00000000 6.94444444e-03
 0.50000000 0.08333333 0.00000000 6.94444444e-03
 0.50000000 0.16666667 0.00000000 6.94444444e-03
 0.50000000 0.25000000 0.00000000 6.94444444e-03
 0.50000000 0.33333333 0.00000000 6.94444444e-03
 0.50000000 0.41666667 0.00000000 6.94444444e-03
 0.50000000 0.50000000 0.00000000 6.94444444e-03
 0.50000000 0.58333333 0.00000000 6.94444444e-03
 0.50000000 0.66666667 0.00000000 6.94444444e-03
 0.50000000 0.75000000 0.00000000 6.94444444e-03
 0.50000000 0.83333333 0.00000000 6.94444444e-03
 0.50000000 0.91666667 0.00000000 6.94444444e-03
 0.58333333 0.00000000 0.00000000 6.94444444e-03
 0.58333333 0.08333333 0.00000000 6.94444444e-03
 0.58333333 0.16666667 0.00000000 6.94444444e-03
 0.58333333 0.25000000 0.00000000 6.94444444e-03
 0.58333333 0.33333333 0.00000000 6.94444444e-03
 0.58333333 0.41666667 0.00000000 6.94444444e-03
 0.58333333 0.50000000 0.00000000 6.94444444e-03
 0.58333333 0.58333333 0.00000000 6.94444444e-03
 0.58333333 0.66666667 0.00000000 6.94444444e-03
 0.58333333 0.75000000 0.00000000 6.94444444e-03
 0.58333333 0.83333333 0.00000000 6.94444444e-03
 0.58333333 0.91666667 0.00000000 6.94444444e-03
 0.66666667 0.00000000 0.00000000 6.94444444e-03
 0.66666667 0.08333333 0.00000000 6.94444444e-03
 0.66666667 0.16666667 0.00000000 6.94444444e-03
 0.66666667 0.25000000 0.00000000 6.94444444e-03
 0.66666667 0.33333333 0.00000000 6.94444444e-03
 0.66666667 0.41666667 0.00000000 6.94444444e-03
 0.66666667 0.50000000 0.00000000 6.94444444e-03
 0.66666667 0.58333333 0.00000000 6.94444444e-03
 0.66666667 0.66666667 0.00000000 6.94444444e-03
 0.66666667 0.75000000 0.00000000 6.94444444e-03
 0.66666667 0.83333333 0.00000000 6.94444444e-03
 0.66666667 0.91666667 0.00000000 6.94444444e-03
 0.75000000 0.00000000 0.00000000 6.94444444e-03
 0.75000000 0.08333333 0.00000000 6.94444444e-03
 0.75000000 0.16666667 0.00000000 6.94444444e-03
 0.75000000 0.25000000 0.00000000 6.94444444e-03
 0.75000000 0.33333333 0.00000000 6.94444444e-03
 0.75000000 0.41666667 0.00000000 6.94444444e-03
 0.75000000 0.50000000 0.00000000 6.94444444e-03
 0.75000000 0.58333333 0.00000000 6.94444444e-03
 0.75000000 0.66666667 0.00000000 6.94444444e-03
 0.75000000 0.75000000 0.00000000 6.94444444e-03
 0.75000000 0.83333333 0.00000000 6.94444444e-03
 0.75000000 0.91666667 0.00000000 6.94444444e-03
 0.83333333 0.00000000 0.00000000 6.94444444e-03
 0.83333333 0.08333333 0.00000000 6.94444444e-03
 0.83333333 0.16666667 0.00000000 6.94444444e-03
 0.83333333 0.25000000 0.00000000 6.94444444e-03
 0.83333333 0.33333333 0.00000000 6.94444444e-03
 0.83333333 0.41666667 0.00000000 6.94444444e-03
 0.83333333 0.50000000 0.00000000 6.94444444e-03
 0.83333333 0.58333333 0.00000000 6.94444444e-03
 0.83333333 0.66666667 0.00000000 6.94444444e-03
 0.83333333 0.75000000 0.00000000 6.94444444e-03
 0.83333333 0.83333333 0.00000000 6.94444444e-03
 0.83333333 0.91666667 0.00000000 6.94444444e-03
 0.91666667 0.00000000 0.00000000 6.94444444e-03
 0.91666667 0.08333333 0.00000000 6.94444444e-03
 0.91666667 0.16666667 0.00000000 6.94444444e-03
 0.91666667 0.25000000 0.00000000 6.94444444e-03
 0.91666667 0.33333333 0.00000000 6.94444444e-03
 0.91666667 0.41666667 0.00000000 6.94444444e-03
 0.91666667 0.50000000 0.00000000 6.94444444e-03
 0.91666667 0.58333333 0.00000000 6.94444444e-03
 0.91666667 0.66666667 0.00000000 6.94444444e-03
 0.91666667 0.75000000 0.00000000 6.94444444e-03
 0.91666667 0.83333333 0.00000000 6.94444444e-03
 0.91666667 0.91666667 0.00000000 6.94444444e-03